NAME : n80w60.005.695.tour
COMMENT : Length = 695
COMMENT : Found by LKH [Keld Helsgaun] Tue May  2 05:48:13 2017
TYPE : TOUR
DIMENSION : 81
TOUR_SECTION
1
17
53
44
27
4
73
76
13
65
21
64
10
69
54
9
47
80
29
36
71
43
14
77
75
20
38
23
55
57
50
35
15
67
59
40
37
46
70
18
12
41
26
8
5
3
31
66
48
42
2
51
28
30
49
19
24
6
56
79
39
62
72
22
58
68
52
25
78
33
61
45
34
11
63
60
16
74
7
81
32
-1
EOF
